* #variable= 36 #constraint= 50 
-1 x25 -1 x1 -1 x13 >= -2 ;
-1 x25 +1 x1 +1 x13 >= 0 ;
+1 x25 -1 x1 +1 x13 >= 0 ;
+1 x25 +1 x1 -1 x13 >= 0 ;
-1 x26 -1 x2 -1 x14 >= -2 ;
-1 x26 +1 x2 +1 x14 >= 0 ;
+1 x26 -1 x2 +1 x14 >= 0 ;
+1 x26 +1 x2 -1 x14 >= 0 ;
-1 x27 -1 x3 -1 x15 >= -2 ;
-1 x27 +1 x3 +1 x15 >= 0 ;
+1 x27 -1 x3 +1 x15 >= 0 ;
+1 x27 +1 x3 -1 x15 >= 0 ;
-1 x28 -1 x4 -1 x16 >= -2 ;
-1 x28 +1 x4 +1 x16 >= 0 ;
+1 x28 -1 x4 +1 x16 >= 0 ;
+1 x28 +1 x4 -1 x16 >= 0 ;
-1 x29 -1 x5 -1 x17 >= -2 ;
-1 x29 +1 x5 +1 x17 >= 0 ;
+1 x29 -1 x5 +1 x17 >= 0 ;
+1 x29 +1 x5 -1 x17 >= 0 ;
-1 x30 -1 x6 -1 x18 >= -2 ;
-1 x30 +1 x6 +1 x18 >= 0 ;
+1 x30 -1 x6 +1 x18 >= 0 ;
+1 x30 +1 x6 -1 x18 >= 0 ;
-1 x31 -1 x7 -1 x19 >= -2 ;
-1 x31 +1 x7 +1 x19 >= 0 ;
+1 x31 -1 x7 +1 x19 >= 0 ;
+1 x31 +1 x7 -1 x19 >= 0 ;
-1 x32 -1 x8 -1 x20 >= -2 ;
-1 x32 +1 x8 +1 x20 >= 0 ;
+1 x32 -1 x8 +1 x20 >= 0 ;
+1 x32 +1 x8 -1 x20 >= 0 ;
-1 x33 -1 x9 -1 x21 >= -2 ;
-1 x33 +1 x9 +1 x21 >= 0 ;
+1 x33 -1 x9 +1 x21 >= 0 ;
+1 x33 +1 x9 -1 x21 >= 0 ;
-1 x34 -1 x10 -1 x22 >= -2 ;
-1 x34 +1 x10 +1 x22 >= 0 ;
+1 x34 -1 x10 +1 x22 >= 0 ;
+1 x34 +1 x10 -1 x22 >= 0 ;
-1 x35 -1 x11 -1 x23 >= -2 ;
-1 x35 +1 x11 +1 x23 >= 0 ;
+1 x35 -1 x11 +1 x23 >= 0 ;
+1 x35 +1 x11 -1 x23 >= 0 ;
-1 x36 -1 x12 -1 x24 >= -2 ;
-1 x36 +1 x12 +1 x24 >= 0 ;
+1 x36 -1 x12 +1 x24 >= 0 ;
+1 x36 +1 x12 -1 x24 >= 0 ;
+1 x1 -1 x13 +2 x2 -2 x14 +4 x3 -4 x15 +8 x4 -8 x16 +16 x5 -16 x17 +32 x6 -32 x18 +64 x7 -64 x19 +128 x8 -128 x20 +256 x9 -256 x21 +512 x10 -512 x22 +1024 x11 -1024 x23 +2048 x12 -2048 x24 = 0 ;
+1 x25 +1 x26 +1 x27 +1 x28 +1 x29 +1 x30 +1 x31 +1 x32 +1 x33 +1 x34 +1 x35 +1 x36 >= 1 ;
